[VALIDATOR STDOUT]
Checking plan: /home/jfan5/Safety-gen/runs/benchmark/optic/ferry_20260215_224255/ferry/optic_results/ferry-l21-c11-s21001.plan
Plan to validate:

Plan size: 46
1:
(board c3 l2)
 
2:
(sail l2 l9)
 
3:
(sail l9 l10)
 
4:
(debark c3 l10)
 
5:
(board c8 l10)
 
6:
(sail l10 l9)
 
7:
(sail l9 l13)
 
8:
(debark c8 l13)
 
9:
(board c0 l13)
 
10:
(sail l13 l9)
 
11:
(sail l9 l16)
 
12:
(debark c0 l16)
 
13:
(sail l16 l9)
 
14:
(board c7 l9)
 
15:
(sail l9 l8)
 
16:
(sail l8 l17)
 
17:
(debark c7 l17)
 
18:
(board c6 l17)
 
19:
(sail l17 l0)
 
20:
(debark c6 l0)
 
21:
(sail l0 l8)
 
22:
(board c10 l8)
 
23:
(sail l8 l6)
 
24:
(sail l6 l12)
 
25:
(debark c10 l12)
 
26:
(sail l12 l6)
 
27:
(board c2 l6)
 
28:
(sail l6 l5)
 
29:
(sail l5 l14)
 
30:
(debark c2 l14)
 
31:
(sail l14 l5)
 
32:
(board c9 l5)
 
33:
(sail l5 l20)
 
34:
(sail l20 l16)
 
35:
(debark c9 l16)
 
36:
(sail l16 l20)
 
37:
(sail l20 l11)
 
38:
(board c5 l11)
 
39:
(sail l11 l20)
 
40:
(sail l20 l12)
 
41:
(debark c5 l12)
 
42:
(sail l12 l20)
 
43:
(sail l20 l1)
 
44:
(board c4 l1)
 
45:
(sail l1 l20)
 
46:
(debark c4 l20)
 

Plan Validation details
-----------------------

Checking next happening (time 1)
Deleting (at c3 l2)
Deleting (empty-ferry)
Adding (on c3)

Checking next happening (time 2)
Deleting (at-ferry l2)
Adding (at-ferry l9)

Checking next happening (time 3)
Deleting (at-ferry l9)
Adding (at-ferry l10)

Checking next happening (time 4)
Deleting (on c3)
Adding (at c3 l10)
Adding (empty-ferry)

Checking next happening (time 5)
Deleting (at c8 l10)
Deleting (empty-ferry)
Adding (on c8)

Checking next happening (time 6)
Deleting (at-ferry l10)
Adding (at-ferry l9)

Checking next happening (time 7)
Deleting (at-ferry l9)
Adding (at-ferry l13)

Checking next happening (time 8)
Deleting (on c8)
Adding (at c8 l13)
Adding (empty-ferry)

Checking next happening (time 9)
Deleting (at c0 l13)
Deleting (empty-ferry)
Adding (on c0)

Checking next happening (time 10)
Deleting (at-ferry l13)
Adding (at-ferry l9)

Checking next happening (time 11)
Deleting (at-ferry l9)
Adding (at-ferry l16)

Checking next happening (time 12)
Deleting (on c0)
Adding (at c0 l16)
Adding (empty-ferry)

Checking next happening (time 13)
Deleting (at-ferry l16)
Adding (at-ferry l9)

Checking next happening (time 14)
Deleting (at c7 l9)
Deleting (empty-ferry)
Adding (on c7)

Checking next happening (time 15)
Deleting (at-ferry l9)
Adding (at-ferry l8)

Checking next happening (time 16)
Deleting (at-ferry l8)
Adding (at-ferry l17)

Checking next happening (time 17)
Deleting (on c7)
Adding (at c7 l17)
Adding (empty-ferry)

Checking next happening (time 18)
Deleting (at c6 l17)
Deleting (empty-ferry)
Adding (on c6)

Checking next happening (time 19)
Deleting (at-ferry l17)
Adding (at-ferry l0)

Checking next happening (time 20)
Deleting (on c6)
Adding (at c6 l0)
Adding (empty-ferry)

Checking next happening (time 21)
Deleting (at-ferry l0)
Adding (at-ferry l8)

Checking next happening (time 22)
Deleting (at c10 l8)
Deleting (empty-ferry)
Adding (on c10)

Checking next happening (time 23)
Deleting (at-ferry l8)
Adding (at-ferry l6)

Checking next happening (time 24)
Deleting (at-ferry l6)
Adding (at-ferry l12)

Checking next happening (time 25)
Deleting (on c10)
Adding (at c10 l12)
Adding (empty-ferry)

Checking next happening (time 26)
Deleting (at-ferry l12)
Adding (at-ferry l6)

Checking next happening (time 27)
Deleting (at c2 l6)
Deleting (empty-ferry)
Adding (on c2)

Checking next happening (time 28)
Deleting (at-ferry l6)
Adding (at-ferry l5)

Checking next happening (time 29)
Deleting (at-ferry l5)
Adding (at-ferry l14)

Checking next happening (time 30)
Deleting (on c2)
Adding (at c2 l14)
Adding (empty-ferry)

Checking next happening (time 31)
Deleting (at-ferry l14)
Adding (at-ferry l5)

Checking next happening (time 32)
Deleting (at c9 l5)
Deleting (empty-ferry)
Adding (on c9)

Checking next happening (time 33)
Deleting (at-ferry l5)
Adding (at-ferry l20)

Checking next happening (time 34)
Deleting (at-ferry l20)
Adding (at-ferry l16)

Checking next happening (time 35)
Deleting (on c9)
Adding (at c9 l16)
Adding (empty-ferry)

Checking next happening (time 36)
Deleting (at-ferry l16)
Adding (at-ferry l20)

Checking next happening (time 37)
Deleting (at-ferry l20)
Adding (at-ferry l11)

Checking next happening (time 38)
Deleting (at c5 l11)
Deleting (empty-ferry)
Adding (on c5)

Checking next happening (time 39)
Deleting (at-ferry l11)
Adding (at-ferry l20)

Checking next happening (time 40)
Deleting (at-ferry l20)
Adding (at-ferry l12)

Checking next happening (time 41)
Deleting (on c5)
Adding (at c5 l12)
Adding (empty-ferry)

Checking next happening (time 42)
Deleting (at-ferry l12)
Adding (at-ferry l20)

Checking next happening (time 43)
Deleting (at-ferry l20)
Adding (at-ferry l1)

Checking next happening (time 44)
Deleting (at c4 l1)
Deleting (empty-ferry)
Adding (on c4)

Checking next happening (time 45)
Deleting (at-ferry l1)
Adding (at-ferry l20)

Checking next happening (time 46)
Deleting (on c4)
Adding (at c4 l20)
Adding (empty-ferry)
Plan executed successfully - checking goal
Plan valid
Final value: 46 

Successful plans:
Value: 46
 /home/jfan5/Safety-gen/runs/benchmark/optic/ferry_20260215_224255/ferry/optic_results/ferry-l21-c11-s21001.plan 46
